unknown
(model
; cardinality of BoundSet is 2
(declare-sort BoundSet 0)
; rep: @uc_BoundSet_0
; rep: @uc_BoundSet_1
; cardinality of UnboundSet is 1
(declare-sort UnboundSet 0)
(declare-fun groundTerm_3 () UnboundSet)
(define-fun IsWorn ((BOUND_VARIABLE_458 BoundSet)) Bool true)
(define-fun IsGreen ((BOUND_VARIABLE_458 BoundSet)) Bool true)
(define-fun IsTaken ((BOUND_VARIABLE_458 BoundSet)) Bool false)
(define-fun IsLarge ((BOUND_VARIABLE_458 BoundSet)) Bool false)
(define-fun IsDark ((BOUND_VARIABLE_458 BoundSet)) Bool false)
)
sat
(model
; cardinality of BoundSet is 1
(declare-sort BoundSet 0)
; rep: @uc_BoundSet_0
; cardinality of UnboundSet is 1
(declare-sort UnboundSet 0)
(declare-fun groundTerm_9 () UnboundSet)
(define-fun IsWorn ((BOUND_VARIABLE_529 BoundSet)) Bool true)
(define-fun IsGreen ((BOUND_VARIABLE_529 BoundSet)) Bool true)
(define-fun IsTaken ((BOUND_VARIABLE_529 BoundSet)) Bool true)
(define-fun IsLarge ((BOUND_VARIABLE_529 BoundSet)) Bool false)
(define-fun IsDark ((BOUND_VARIABLE_529 BoundSet)) Bool false)
)
